s td 21 5 25
b 1 7 9
b 2 16 17
b 3 20 23
b 4 8 21
b 5 23 24
b 6 4 25
b 7 1 3 5
b 8 4 17 24
b 9 8 10 12
b 10 8 12 17
b 11 8 17 24
b 12 8 14 22
b 13 8 9 24
b 14 6 8 9 11
b 15 8 9 11
b 16 8 11 14
b 17 1 5 11 15
b 18 2 11 14 15 19
b 19 5 11 15 19
b 20 13
b 21 18
1 15
1 20
1 21
2 11
3 5
4 16
5 13
6 8
7 17
8 11
9 10
10 11
11 13
12 16
13 15
14 15
15 16
16 18
17 19
18 19
